SECTION Graph
Nodes 257
Edges 515
E 1 2 1
E 1 227 11
E 1 230 7
E 2 3 14
E 2 228 11
E 3 4 1
E 3 233 11
E 4 234 11
E 5 6 1
E 5 88 23
E 6 7 14
E 6 89 23
E 7 8 1
E 7 90 23
E 8 68 7
E 8 91 23
E 9 10 1
E 9 218 7
E 9 227 12
E 10 11 14
E 10 228 12
E 11 12 1
E 11 233 12
E 12 234 12
E 13 14 1
E 13 224 7
E 13 225 4
E 14 15 14
E 14 226 4
E 15 16 1
E 15 231 4
E 16 232 4
E 17 18 1
E 17 203 7
E 17 205 6
E 17 221 11
E 18 19 14
E 18 207 6
E 18 222 11
E 19 20 1
E 19 219 6
E 19 229 11
E 20 220 6
E 20 227 7
E 20 230 11
E 21 22 1
E 21 170 7
E 21 197 11
E 22 23 14
E 22 200 11
E 23 24 1
E 23 216 11
E 24 218 11
E 25 26 1
E 25 194 7
E 25 196 6
E 25 209 4
E 26 27 14
E 26 199 6
E 26 212 4
E 27 28 1
E 27 215 6
E 27 223 4
E 28 217 6
E 28 224 4
E 28 225 7
E 29 30 1
E 29 163 7
E 29 165 6
E 29 178 6
E 30 31 14
E 30 167 6
E 30 182 6
E 31 32 1
E 31 187 6
E 31 201 6
E 32 189 6
E 32 203 6
E 32 205 7
E 33 34 1
E 33 137 7
E 33 146 6
E 34 35 14
E 34 150 6
E 35 36 1
E 35 168 6
E 36 170 6
E 37 38 1
E 37 195 4
E 38 198 4
E 38 210 6
E 39 40 1
E 39 211 8
E 39 214 6
E 40 213 8
E 41 42 1
E 41 67 7
E 41 113 23
E 42 43 14
E 42 115 23
E 43 44 1
E 43 129 23
E 44 131 23
E 45 46 6
E 45 181 7
E 45 184 6
E 45 193 2
E 46 47 2
E 46 191 6
E 46 206 4
E 47 193 6
E 47 208 4
E 47 211 6
E 48 49 1
E 48 159 2
E 49 50 14
E 49 162 2
E 50 51 1
E 50 179 2
E 51 183 2
E 51 195 7
E 52 53 1
E 52 130 7
E 52 132 2
E 52 147 13
E 53 54 14
E 53 135 2
E 53 151 13
E 54 55 1
E 54 148 2
E 54 169 13
E 55 152 2
E 55 164 7
E 55 171 13
E 56 57 1
E 56 107 7
E 56 108 2
E 56 118 6
E 57 58 14
E 57 110 2
E 57 120 6
E 58 59 1
E 58 126 2
E 58 133 6
E 59 127 2
E 59 136 6
E 59 138 7
E 60 61 1
E 60 95 7
E 60 96 2
E 60 100 6
E 61 62 14
E 61 97 2
E 61 101 6
E 62 63 1
E 62 104 2
E 62 109 6
E 63 105 2
E 63 111 6
E 63 113 7
E 64 65 1
E 64 68 23
E 64 91 7
E 64 96 21
E 65 66 14
E 65 69 23
E 65 97 21
E 66 67 1
E 66 70 23
E 66 104 21
E 67 71 23
E 67 105 21
E 68 69 1
E 69 70 14
E 70 71 1
E 72 73 1
E 72 112 21
E 73 74 14
E 73 114 21
E 74 75 1
E 74 128 21
E 75 130 21
E 75 159 7
E 76 77 1
E 76 98 21
E 76 112 2
E 77 78 14
E 77 99 21
E 77 114 2
E 78 79 1
E 78 106 21
E 78 128 2
E 79 107 21
E 79 130 2
E 79 132 7
E 80 81 1
E 80 92 21
E 80 98 2
E 81 82 14
E 81 93 21
E 81 99 2
E 82 83 1
E 82 94 21
E 82 106 2
E 83 95 21
E 83 107 2
E 83 108 7
E 84 85 1
E 84 88 21
E 84 92 2
E 85 86 14
E 85 89 21
E 85 93 2
E 86 87 1
E 86 90 21
E 86 94 2
E 87 91 21
E 87 95 2
E 87 96 7
E 88 89 1
E 89 90 14
E 90 91 1
E 92 93 1
E 93 94 14
E 94 95 1
E 96 97 1
E 97 104 14
E 98 99 1
E 99 106 14
E 100 101 1
E 100 102 6
E 101 103 6
E 101 109 14
E 102 103 1
E 102 108 9
E 103 110 9
E 103 116 14
E 104 105 1
E 106 107 1
E 108 110 1
E 109 111 1
E 109 116 6
E 110 126 14
E 111 117 6
E 111 119 7
E 112 114 1
E 113 115 1
E 113 119 6
E 114 128 14
E 115 121 6
E 115 122 6
E 116 117 1
E 116 126 9
E 117 127 9
E 117 146 30
E 118 120 1
E 118 124 6
E 119 121 1
E 119 138 17
E 120 125 6
E 120 133 14
E 121 134 14
E 121 139 17
E 122 123 2
E 122 144 23
E 123 129 6
E 123 145 23
E 124 125 1
E 124 132 9
E 125 135 9
E 125 140 14
E 126 127 1
E 128 130 1
E 129 131 1
E 129 134 6
E 131 137 6
E 132 135 1
E 133 136 1
E 133 140 6
E 134 137 1
E 134 154 17
E 135 148 14
E 136 141 6
E 136 142 7
E 137 155 17
E 138 139 1
E 138 142 6
E 139 143 6
E 139 144 6
E 140 141 1
E 140 148 9
E 141 152 9
E 141 157 14
E 142 143 1
E 142 164 17
E 143 149 6
E 143 166 17
E 144 145 2
E 144 149 6
E 145 153 6
E 145 154 6
E 146 150 1
E 146 165 11
E 147 151 1
E 147 156 6
E 148 152 1
E 149 153 2
E 149 157 6
E 150 167 11
E 150 168 14
E 151 158 6
E 151 169 14
E 153 160 6
E 153 161 6
E 154 155 1
E 154 161 6
E 155 163 6
E 155 165 7
E 156 158 1
E 156 159 2
E 157 160 2
E 157 174 11
E 158 162 2
E 158 176 14
E 159 162 1
E 160 175 11
E 160 178 14
E 161 163 1
E 161 186 17
E 162 179 14
E 163 188 17
E 164 166 1
E 164 172 6
E 165 167 1
E 166 173 6
E 166 174 6
E 167 187 14
E 168 170 1
E 168 187 11
E 169 171 1
E 169 176 6
E 170 189 11
E 171 177 6
E 171 180 7
E 172 173 1
E 172 180 7
E 173 181 6
E 173 184 7
E 174 175 2
E 174 181 6
E 175 185 6
E 175 186 6
E 176 177 1
E 176 179 2
E 177 183 2
E 177 190 7
E 178 182 1
E 178 196 11
E 179 183 1
E 180 184 1
E 180 190 6
E 181 185 2
E 182 199 11
E 182 201 14
E 184 191 6
E 185 192 6
E 185 193 7
E 186 188 1
E 186 192 6
E 187 189 1
E 188 194 6
E 188 196 7
E 189 197 7
E 190 191 1
E 190 195 4
E 191 198 4
E 192 194 1
E 192 202 7
E 193 202 6
E 194 204 7
E 195 198 1
E 196 199 1
E 197 200 1
E 197 205 6
E 198 206 6
E 199 215 14
E 200 207 6
E 200 216 14
E 201 203 1
E 201 215 11
E 202 204 1
E 202 211 6
E 203 217 11
E 204 209 10
E 204 213 6
E 205 207 1
E 206 208 2
E 206 210 4
E 207 219 14
E 208 214 4
E 209 212 1
E 210 214 2
E 211 213 1
E 212 223 14
E 215 217 1
E 216 218 1
E 216 219 6
E 217 221 7
E 218 220 6
E 219 220 1
E 221 222 1
E 221 225 6
E 222 226 6
E 222 229 14
E 223 224 1
E 225 226 1
E 226 231 14
E 227 228 1
E 228 233 14
E 229 230 1
E 229 231 6
E 230 232 6
E 231 232 1
E 233 234 1
E 1 235 100000
E 2 235 100000
E 3 235 100000
E 4 235 100000
E 5 236 100000
E 6 236 100000
E 7 236 100000
E 8 236 100000
E 9 237 100000
E 10 237 100000
E 11 237 100000
E 12 237 100000
E 13 238 100000
E 14 238 100000
E 15 238 100000
E 16 238 100000
E 17 239 100000
E 18 239 100000
E 19 239 100000
E 20 239 100000
E 21 240 100000
E 22 240 100000
E 23 240 100000
E 24 240 100000
E 25 241 100000
E 26 241 100000
E 27 241 100000
E 28 241 100000
E 29 242 100000
E 30 242 100000
E 31 242 100000
E 32 242 100000
E 33 243 100000
E 34 243 100000
E 35 243 100000
E 36 243 100000
E 37 244 100000
E 38 244 100000
E 39 244 100000
E 40 244 100000
E 41 245 100000
E 42 245 100000
E 43 245 100000
E 44 245 100000
E 45 246 100000
E 46 246 100000
E 47 246 100000
E 48 247 100000
E 49 247 100000
E 50 247 100000
E 51 247 100000
E 52 248 100000
E 53 248 100000
E 54 248 100000
E 55 248 100000
E 56 249 100000
E 57 249 100000
E 58 249 100000
E 59 249 100000
E 60 250 100000
E 61 250 100000
E 62 250 100000
E 63 250 100000
E 64 251 100000
E 65 251 100000
E 66 251 100000
E 67 251 100000
E 68 252 100000
E 69 252 100000
E 70 252 100000
E 71 252 100000
E 72 253 100000
E 73 253 100000
E 74 253 100000
E 75 253 100000
E 76 254 100000
E 77 254 100000
E 78 254 100000
E 79 254 100000
E 80 255 100000
E 81 255 100000
E 82 255 100000
E 83 255 100000
E 84 256 100000
E 85 256 100000
E 86 256 100000
E 87 256 100000
E 88 257 100000
E 89 257 100000
E 90 257 100000
E 91 257 100000
END

SECTION Terminals
Terminals 23
T 235
T 236
T 237
T 238
T 239
T 240
T 241
T 242
T 243
T 244
T 245
T 246
T 247
T 248
T 249
T 250
T 251
T 252
T 253
T 254
T 255
T 256
T 257
END

EOF
